c Generated map
c Size: 10 * 10, weights in range: 1 to 10, walls: True, with ratio 0.05
c dim 2 of 6
c
p sp 100 161
c graph contains 100 nodes and 161 arcs
c
a 1 11 5
a 11 1 5
a 1 2 8
a 2 1 8
a 2 12 10
a 12 2 10
a 2 3 6
a 3 2 6
a 3 13 2
a 13 3 2
a 3 4 1
a 4 3 1
a 4 14 6
a 14 4 6
a 4 5 5
a 5 4 5
a 5 15 9
a 15 5 9
a 5 6 5
a 6 5 5
a 6 16 6
a 16 6 6
a 6 7 3
a 7 6 3
a 7 17 2
a 17 7 2
a 7 8 4
a 8 7 4
a 8 18 9
a 18 8 9
a 8 9 4
a 9 8 4
a 9 19 5
a 19 9 5
a 9 10 8
a 10 9 8
a 10 20 1
a 20 10 1
a 11 21 6
a 21 11 6
a 11 12 10
a 12 11 10
a 12 22 1
a 22 12 1
a 12 13 5
a 13 12 5
a 13 23 5
a 23 13 5
a 13 14 1
a 14 13 1
a 14 24 3
a 24 14 3
a 14 15 3
a 15 14 3
a 15 25 10
a 25 15 10
a 15 16 7
a 16 15 7
a 16 26 1
a 26 16 1
a 16 17 8
a 17 16 8
a 17 27 8
a 27 17 8
a 17 18 5
a 18 17 5
a 18 19 4
a 19 18 4
a 19 29 3
a 29 19 3
a 19 20 9
a 20 19 9
a 20 30 3
a 30 20 3
a 21 31 10
a 31 21 10
a 21 22 5
a 22 21 5
a 22 32 4
a 32 22 4
a 22 23 5
a 23 22 5
a 23 33 2
a 33 23 2
a 23 24 9
a 24 23 9
a 24 34 3
a 34 24 3
a 24 25 7
a 25 24 7
a 25 35 4
a 35 25 4
a 25 26 2
a 26 25 2
a 26 36 3
a 36 26 3
a 26 27 5
a 27 26 5
a 27 37 1
a 37 27 1
a 29 39 1
a 39 29 1
a 29 30 3
a 30 29 3
a 30 40 2
a 40 30 2
a 31 41 8
a 41 31 8
a 31 32 6
a 32 31 6
a 32 42 2
a 42 32 2
a 32 33 8
a 33 32 8
a 33 43 4
a 43 33 4
a 33 34 3
a 34 33 3
a 34 44 2
a 44 34 2
a 34 35 7
a 35 34 7
a 35 45 5
a 45 35 5
a 35 36 3
a 36 35 3
a 36 46 5
a 46 36 5
a 36 37 6
a 37 36 6
a 37 47 3
a 47 37 3
a 37 38 2
a 38 37 2
a 38 48 3
a 48 38 3
a 38 39 9
a 39 38 9
a 39 49 5
a 49 39 5
a 39 40 1
a 40 39 1
a 40 50 3
a 50 40 3
a 41 51 4
a 51 41 4
a 41 42 3
a 42 41 3
a 42 52 8
a 52 42 8
a 42 43 4
a 43 42 4
a 43 53 5
a 53 43 5
a 43 44 2
a 44 43 2
a 44 54 1
a 54 44 1
a 44 45 2
a 45 44 2
a 45 55 10
a 55 45 10
a 45 46 10
a 46 45 10
a 46 56 5
a 56 46 5
a 46 47 1
a 47 46 1
a 47 57 5
a 57 47 5
a 47 48 3
a 48 47 3
a 48 58 5
a 58 48 5
a 48 49 10
a 49 48 10
a 49 59 7
a 59 49 7
a 49 50 9
a 50 49 9
a 50 60 6
a 60 50 6
a 51 61 8
a 61 51 8
a 51 52 6
a 52 51 6
a 52 62 3
a 62 52 3
a 52 53 8
a 53 52 8
a 53 63 9
a 63 53 9
a 53 54 6
a 54 53 6
a 54 64 9
a 64 54 9
a 54 55 1
a 55 54 1
a 55 65 1
a 65 55 1
a 55 56 5
a 56 55 5
a 56 66 10
a 66 56 10
a 56 57 3
a 57 56 3
a 57 67 2
a 67 57 2
a 57 58 10
a 58 57 10
a 58 68 2
a 68 58 2
a 58 59 10
a 59 58 10
a 59 69 7
a 69 59 7
a 59 60 1
a 60 59 1
a 60 70 1
a 70 60 1
a 61 71 4
a 71 61 4
a 61 62 6
a 62 61 6
a 62 63 8
a 63 62 8
a 63 73 2
a 73 63 2
a 63 64 5
a 64 63 5
a 64 74 2
a 74 64 2
a 64 65 6
a 65 64 6
a 65 75 5
a 75 65 5
a 65 66 7
a 66 65 7
a 66 76 9
a 76 66 9
a 66 67 1
a 67 66 1
a 67 77 2
a 77 67 2
a 67 68 8
a 68 67 8
a 68 78 6
a 78 68 6
a 68 69 9
a 69 68 9
a 69 79 2
a 79 69 2
a 69 70 8
a 70 69 8
a 70 80 2
a 80 70 2
a 71 81 6
a 81 71 6
a 73 83 9
a 83 73 9
a 73 74 2
a 74 73 2
a 74 75 6
a 75 74 6
a 75 85 4
a 85 75 4
a 75 76 3
a 76 75 3
a 76 86 8
a 86 76 8
a 76 77 4
a 77 76 4
a 77 87 1
a 87 77 1
a 77 78 1
a 78 77 1
a 78 79 5
a 79 78 5
a 79 80 9
a 80 79 9
a 80 90 5
a 90 80 5
a 81 91 9
a 91 81 9
a 81 82 6
a 82 81 6
a 82 92 1
a 92 82 1
a 82 83 3
a 83 82 3
a 83 93 8
a 93 83 8
a 85 95 9
a 95 85 9
a 85 86 3
a 86 85 3
a 86 96 6
a 96 86 6
a 86 87 10
a 87 86 10
a 87 97 5
a 97 87 5
a 90 100 6
a 100 90 6
a 91 92 3
a 92 91 3
a 92 93 5
a 93 92 5
a 93 94 1
a 94 93 1
a 94 95 6
a 95 94 6
a 95 96 8
a 96 95 8
a 96 97 5
a 97 96 5
a 97 98 8
a 98 97 8
a 98 99 1
a 99 98 1
a 99 100 5
a 100 99 5
